NAME: C105
COMMENT: converted from Solomon txt
TYPE: VRPTW
VEHICLES: 25
DIMENSION: 101
CAPACITY: 200
EDGE_WEIGHT_TYPE: EUC_2D
NODE_COORD_SECTION
1	40.0	50.0
2	45.0	68.0
3	45.0	70.0
4	42.0	66.0
5	42.0	68.0
6	42.0	65.0
7	40.0	69.0
8	40.0	66.0
9	38.0	68.0
10	38.0	70.0
11	35.0	66.0
12	35.0	69.0
13	25.0	85.0
14	22.0	75.0
15	22.0	85.0
16	20.0	80.0
17	20.0	85.0
18	18.0	75.0
19	15.0	75.0
20	15.0	80.0
21	30.0	50.0
22	30.0	52.0
23	28.0	52.0
24	28.0	55.0
25	25.0	50.0
26	25.0	52.0
27	25.0	55.0
28	23.0	52.0
29	23.0	55.0
30	20.0	50.0
31	20.0	55.0
32	10.0	35.0
33	10.0	40.0
34	8.0	40.0
35	8.0	45.0
36	5.0	35.0
37	5.0	45.0
38	2.0	40.0
39	0.0	40.0
40	0.0	45.0
41	35.0	30.0
42	35.0	32.0
43	33.0	32.0
44	33.0	35.0
45	32.0	30.0
46	30.0	30.0
47	30.0	32.0
48	30.0	35.0
49	28.0	30.0
50	28.0	35.0
51	26.0	32.0
52	25.0	30.0
53	25.0	35.0
54	44.0	5.0
55	42.0	10.0
56	42.0	15.0
57	40.0	5.0
58	40.0	15.0
59	38.0	5.0
60	38.0	15.0
61	35.0	5.0
62	50.0	30.0
63	50.0	35.0
64	50.0	40.0
65	48.0	30.0
66	48.0	40.0
67	47.0	35.0
68	47.0	40.0
69	45.0	30.0
70	45.0	35.0
71	95.0	30.0
72	95.0	35.0
73	53.0	30.0
74	92.0	30.0
75	53.0	35.0
76	45.0	65.0
77	90.0	35.0
78	88.0	30.0
79	88.0	35.0
80	87.0	30.0
81	85.0	25.0
82	85.0	35.0
83	75.0	55.0
84	72.0	55.0
85	70.0	58.0
86	68.0	60.0
87	66.0	55.0
88	65.0	55.0
89	65.0	60.0
90	63.0	58.0
91	60.0	55.0
92	60.0	60.0
93	67.0	85.0
94	65.0	85.0
95	65.0	82.0
96	62.0	80.0
97	60.0	80.0
98	60.0	85.0
99	58.0	75.0
100	55.0	80.0
101	55.0	85.0
DEMAND_SECTION
1	0
2	10
3	30
4	10
5	10
6	10
7	20
8	20
9	20
10	10
11	10
12	10
13	20
14	30
15	10
16	40
17	40
18	20
19	20
20	10
21	10
22	20
23	20
24	10
25	10
26	40
27	10
28	10
29	20
30	10
31	10
32	20
33	30
34	40
35	20
36	10
37	10
38	20
39	30
40	20
41	10
42	10
43	20
44	10
45	10
46	10
47	30
48	10
49	10
50	10
51	10
52	10
53	10
54	20
55	40
56	10
57	30
58	40
59	30
60	10
61	20
62	10
63	20
64	50
65	10
66	10
67	10
68	10
69	10
70	10
71	30
72	20
73	10
74	10
75	50
76	20
77	10
78	10
79	20
80	10
81	10
82	30
83	20
84	10
85	20
86	30
87	10
88	20
89	30
90	10
91	10
92	10
93	20
94	40
95	10
96	30
97	10
98	30
99	20
100	10
101	20
DEPOT_SECTION
1
TIME_WINDOW_SECTION
1	0.0	1236.0
2	885.0	994.0
3	802.0	893.0
4	25.0	186.0
5	699.0	810.0
6	15.0	120.0
7	580.0	743.0
8	142.0	253.0
9	220.0	359.0
10	499.0	640.0
11	331.0	436.0
12	420.0	533.0
13	617.0	756.0
14	30.0	155.0
15	541.0	646.0
16	362.0	451.0
17	448.0	555.0
18	75.0	172.0
19	142.0	291.0
20	244.0	379.0
21	10.0	137.0
22	888.0	991.0
23	776.0	919.0
24	709.0	800.0
25	25.0	184.0
26	142.0	251.0
27	582.0	741.0
28	234.0	343.0
29	523.0	616.0
30	335.0	428.0
31	422.0	531.0
32	181.0	256.0
33	31.0	170.0
34	52.0	193.0
35	719.0	848.0
36	252.0	375.0
37	639.0	742.0
38	357.0	460.0
39	457.0	544.0
40	538.0	653.0
41	236.0	349.0
42	132.0	269.0
43	27.0	190.0
44	16.0	144.0
45	332.0	439.0
46	512.0	629.0
47	417.0	540.0
48	982.0	1127.0
49	601.0	724.0
50	969.0	1098.0
51	783.0	912.0
52	695.0	816.0
53	883.0	998.0
54	255.0	378.0
55	150.0	293.0
56	63.0	190.0
57	359.0	462.0
58	35.0	140.0
59	439.0	566.0
60	607.0	784.0
61	529.0	662.0
62	491.0	650.0
63	235.0	344.0
64	147.0	242.0
65	601.0	724.0
66	50.0	155.0
67	802.0	899.0
68	12.0	143.0
69	712.0	799.0
70	889.0	996.0
71	353.0	490.0
72	260.0	393.0
73	422.0	533.0
74	442.0	587.0
75	323.0	442.0
76	962.0	1103.0
77	175.0	288.0
78	539.0	678.0
79	78.0	201.0
80	636.0	763.0
81	744.0	845.0
82	47.0	201.0
83	344.0	445.0
84	228.0	375.0
85	425.0	556.0
86	527.0	640.0
87	141.0	270.0
88	56.0	173.0
89	614.0	739.0
90	705.0	834.0
91	20.0	148.0
92	809.0	916.0
93	331.0	478.0
94	453.0	540.0
95	260.0	361.0
96	174.0	261.0
97	64.0	187.0
98	531.0	652.0
99	30.0	139.0
100	705.0	858.0
101	608.0	765.0
SERVICE_TIME_SECTION
1	0.0
2	90.0
3	90.0
4	90.0
5	90.0
6	90.0
7	90.0
8	90.0
9	90.0
10	90.0
11	90.0
12	90.0
13	90.0
14	90.0
15	90.0
16	90.0
17	90.0
18	90.0
19	90.0
20	90.0
21	90.0
22	90.0
23	90.0
24	90.0
25	90.0
26	90.0
27	90.0
28	90.0
29	90.0
30	90.0
31	90.0
32	90.0
33	90.0
34	90.0
35	90.0
36	90.0
37	90.0
38	90.0
39	90.0
40	90.0
41	90.0
42	90.0
43	90.0
44	90.0
45	90.0
46	90.0
47	90.0
48	90.0
49	90.0
50	90.0
51	90.0
52	90.0
53	90.0
54	90.0
55	90.0
56	90.0
57	90.0
58	90.0
59	90.0
60	90.0
61	90.0
62	90.0
63	90.0
64	90.0
65	90.0
66	90.0
67	90.0
68	90.0
69	90.0
70	90.0
71	90.0
72	90.0
73	90.0
74	90.0
75	90.0
76	90.0
77	90.0
78	90.0
79	90.0
80	90.0
81	90.0
82	90.0
83	90.0
84	90.0
85	90.0
86	90.0
87	90.0
88	90.0
89	90.0
90	90.0
91	90.0
92	90.0
93	90.0
94	90.0
95	90.0
96	90.0
97	90.0
98	90.0
99	90.0
100	90.0
101	90.0
EOF
